73
120
96	3
95	2
94	7
93	7
92	5
91	3
90	3
89	2
88	1
87	3
86	1
85	2
84	8
83	3
82	10
81	4
80	4
79	3
78	5
77	3
76	4
75	3
74	3
73	9
72	2
71	3
70	3
69	3
68	4
67	3
66	8
65	3
64	6
63	4
62	7
61	8
60	4
59	4
58	7
57	2
56	6
55	1
54	8
53	6
52	9
51	4
50	3
49	7
48	6
47	5
46	3
45	7
44	4
43	2
42	1
41	4
40	1
39	3
38	3
37	6
36	2
35	3
34	3
33	3
32	2
31	3
30	2
29	6
28	4
27	4
26	1
25	5
24	4
